db/inputs/235861991413240316812680520095106128882.smt2
(set-logic QF_FP)
(declare-const x0 (_ FloatingPoint 11 53))
(declare-const x1 (_ FloatingPoint 11 53))
(declare-const x2 (_ FloatingPoint 11 53))
(declare-const x3 (_ FloatingPoint 11 53))
(declare-const x4 (_ FloatingPoint 11 53))
(declare-const x5 (_ FloatingPoint 11 53))
(declare-const x6 (_ FloatingPoint 11 53))
(declare-const x7 (_ FloatingPoint 11 53))
(declare-const x8 (_ FloatingPoint 11 53))
(declare-const x9 (_ FloatingPoint 11 53))
(declare-const x10 (_ FloatingPoint 11 53))
(declare-const x11 (_ FloatingPoint 11 53))
(assert (fp.eq (fp.sub RNE x5 x0) (fp.mul RNE x7 x8)))
(assert (fp.eq (fp.mul RNE x6 x0) (fp.sub RNE x1 x6)))
(assert (fp.leq (fp.neg x11) (fp.neg x11)))
(assert (fp.gt (fp.add RNE x0 x9) (fp.mul RNE x10 x9)))
(assert (fp.geq (fp.mul RNE x2 x4) (fp.div RNE x8 x5)))
(assert (fp.eq (fp.neg x5) (fp.add RNE x6 x7)))
(assert (fp.eq (fp.sub RNE x1 x8) (fp.sub RNE x5 x9)))
(check-sat)
