db/data/235861991413240316812680520095106128882.z3.out
sat
-------------------
50.928790033
